\ENCODING=ISO-8859-1
\Problem name: IloCplex

Minimize
 obj1: Y(0) + Y(1) + Y(2) + Y(3) + Y(4)
Subject To
 R_Cov(0):   X(0,0) + X(1,0) + X(2,0) + X(3,0) + X(4,0)  = 1
 R_Cov(1):   X(0,1) + X(1,1) + X(2,1) + X(3,1) + X(4,1)  = 1
 R_Cov(2):   X(0,2) + X(1,2) + X(2,2) + X(3,2) + X(4,2)  = 1
 R_Cov(3):   X(0,3) + X(1,3) + X(2,3) + X(3,3) + X(4,3)  = 1
 R_Cov(4):   X(0,4) + X(1,4) + X(2,4) + X(3,4) + X(4,4)  = 1
 R_Rel(0,0): X(0,0) - Y(0) <= 0
 R_Rel(0,1): X(0,1) - Y(0) <= 0
 R_Rel(0,2): X(0,2) - Y(0) <= 0
 R_Rel(0,3): X(0,3) - Y(0) <= 0
 R_Rel(0,4): X(0,4) - Y(0) <= 0
 R_Rel(1,0): X(1,0) - Y(1) <= 0
 R_Rel(1,1): X(1,1) - Y(1) <= 0
 R_Rel(1,2): X(1,2) - Y(1) <= 0
 R_Rel(1,3): X(1,3) - Y(1) <= 0
 R_Rel(1,4): X(1,4) - Y(1) <= 0
 R_Rel(2,0): X(2,0) - Y(2) <= 0
 R_Rel(2,1): X(2,1) - Y(2) <= 0
 R_Rel(2,2): X(2,2) - Y(2) <= 0
 R_Rel(2,3): X(2,3) - Y(2) <= 0
 R_Rel(2,4): X(2,4) - Y(2) <= 0
 R_Rel(3,0): X(3,0) - Y(3) <= 0
 R_Rel(3,1): X(3,1) - Y(3) <= 0
 R_Rel(3,2): X(3,2) - Y(3) <= 0
 R_Rel(3,3): X(3,3) - Y(3) <= 0
 R_Rel(3,4): X(3,4) - Y(3) <= 0
 R_Rel(4,0): X(4,0) - Y(4) <= 0
 R_Rel(4,1): X(4,1) - Y(4) <= 0
 R_Rel(4,2): X(4,2) - Y(4) <= 0
 R_Rel(4,3): X(4,3) - Y(4) <= 0
 R_Rel(4,4): X(4,4) - Y(4) <= 0
 R_Adj(0,3): <= 0
 R_Adj(0,4): <= 0
 R_Adj(1,4): <= 0
 R_Adj(0,1): [ X(0,0) * X(0,1) + X(1,0) * X(1,1) + X(2,0) * X(2,1)
             + X(3,0) * X(3,1) + X(4,0) * X(4,1) ] <= 0
 R_Adj(0,2): [ X(0,0) * X(0,2) + X(1,0) * X(1,2) + X(2,0) * X(2,2)
             + X(3,0) * X(3,2) + X(4,0) * X(4,2) ] <= 0
 R_Adj(1,2): [ X(0,1) * X(0,2) + X(1,1) * X(1,2) + X(2,1) * X(2,2)
             + X(3,1) * X(3,2) + X(4,1) * X(4,2) ] <= 0
 R_Adj(1,3): [ X(0,1) * X(0,3) + X(1,1) * X(1,3) + X(2,1) * X(2,3)
             + X(3,1) * X(3,3) + X(4,1) * X(4,3) ] <= 0
 R_Adj(2,3): [ X(0,2) * X(0,3) + X(1,2) * X(1,3) + X(2,2) * X(2,3)
             + X(3,2) * X(3,3) + X(4,2) * X(4,3) ] <= 0
 R_Adj(2,4): [ X(0,2) * X(0,4) + X(1,2) * X(1,4) + X(2,2) * X(2,4)
             + X(3,2) * X(3,4) + X(4,2) * X(4,4) ] <= 0
 R_Adj(3,4): [ X(0,3) * X(0,4) + X(1,3) * X(1,4) + X(2,3) * X(2,4)
             + X(3,3) * X(3,4) + X(4,3) * X(4,4) ] <= 0
Bounds
 0 <= X(0,0) <= 1
 0 <= X(0,1) <= 1
 0 <= X(0,2) <= 1
 0 <= X(0,3) <= 1
 0 <= X(0,4) <= 1
 0 <= X(1,0) <= 1
 0 <= X(1,1) <= 1
 0 <= X(1,2) <= 1
 0 <= X(1,3) <= 1
 0 <= X(1,4) <= 1
 0 <= X(2,0) <= 1
 0 <= X(2,1) <= 1
 0 <= X(2,2) <= 1
 0 <= X(2,3) <= 1
 0 <= X(2,4) <= 1
 0 <= X(3,0) <= 1
 0 <= X(3,1) <= 1
 0 <= X(3,2) <= 1
 0 <= X(3,3) <= 1
 0 <= X(3,4) <= 1
 0 <= X(4,0) <= 1
 0 <= X(4,1) <= 1
 0 <= X(4,2) <= 1
 0 <= X(4,3) <= 1
 0 <= X(4,4) <= 1
 0 <= Y(0) <= 1
 0 <= Y(1) <= 1
 0 <= Y(2) <= 1
 0 <= Y(3) <= 1
 0 <= Y(4) <= 1
Binaries
 X(0,0)  X(0,1)  X(0,2)  X(0,3)  X(0,4)  X(1,0)  X(1,1)  X(1,2)  X(1,3) 
 X(1,4)  X(2,0)  X(2,1)  X(2,2)  X(2,3)  X(2,4)  X(3,0)  X(3,1)  X(3,2) 
 X(3,3)  X(3,4)  X(4,0)  X(4,1)  X(4,2)  X(4,3)  X(4,4)  Y(0)  Y(1)  Y(2) 
 Y(3)  Y(4) 
End
